(set-logic HORN)
(declare-fun state (Int Int Int (Array Int Int) Int (Array Int Int) Int Int Int Int Int Int (Array Int Int) (Array Int Int) (Array Int Int) (Array Int Int) (Array Int Int) Int Int Int Int Int (Array Int Int) (Array Int Int) (Array Int Int) (Array Int Int) Bool Bool Bool Int Int Int Int Int) Bool)
(assert (forall ((|A_12| Int) (|.y.24| Int) (|.y.25| Int) (|B_12| (Array Int Int)) (|C_11| Int) (|D_11| (Array Int Int)) (|E_11| Int) (|F_11| Int) (|.y.26| Int) (|.y.27| Int) (|.y.28| Int) (|.y.29| Int) (|G_11| (Array Int Int)) (|.y.30| (Array Int Int)) (|.y.31| (Array Int Int)) (|.y.32| (Array Int Int)) (|.y.33| (Array Int Int)) (|H_11| Int) (|.y.34| Int) (|.y.35| Int) (|.y.36| Int) (|.y.37| Int) (|.y.38| (Array Int Int)) (|.y.39| (Array Int Int)) (|.y.40| (Array Int Int)) (|.y.41| (Array Int Int)) (|.loc.42| Bool) (|.loc.43| Bool) (|.loc.44| Bool) (|L_12| Int) (|Y_0| Int) (|J_12| Int) (|J_13| Int) (|L_13| Int) (|.x.117| (Array Int Int)) (|.x.118| Int) (|.x.119| (Array Int Int)) (|.x.120| Int) (|M_11| Int) (|.loc.65| Bool) (|.y.51| (Array Int Int)) (|.y.56| Int) (|.loc.66| Bool) (|.y.57| Int) (|.y.61| (Array Int Int)) (|.y.58| Int) (|.y.62| (Array Int Int)) (|.loc.67| Bool) (|.y.59| Int) (|.y.63| (Array Int Int)) (|.x.116| Int) (|.y.64| (Array Int Int)) (|.y.60| Int) (|.y.49| Int) (|.y.48| Int) (|.y.47| Int) (|.y.45| Int) (|.y.50| Int) (|.y.46| Int) (|.y.55| (Array Int Int)) (|.y.54| (Array Int Int)) (|.y.53| (Array Int Int)) (|.y.52| (Array Int Int)) (|.xtv.1| Int) (|.xtv.2| Int) (|.xtv.3| Int) (|.xpv.1| Int) (|.xpv.2| Int)) (=> (and (and (not .loc.42) (not .loc.43)) (not .loc.44)) (state |A_12| |.y.24| |.y.25| |B_12| |C_11| |D_11| |E_11| |F_11| |.y.26| |.y.27| |.y.28| |.y.29| |G_11| |.y.30| |.y.31| |.y.32| |.y.33| |H_11| |.y.34| |.y.35| |.y.36| |.y.37| |.y.38| |.y.39| |.y.40| |.y.41| |.loc.42| |.loc.43| |.loc.44| |L_12| |Y_0| |J_12| |J_13| |L_13|))))
(assert (forall ((|A_12| Int) (|.y.24| Int) (|.y.25| Int) (|B_12| (Array Int Int)) (|C_11| Int) (|D_11| (Array Int Int)) (|E_11| Int) (|F_11| Int) (|.y.26| Int) (|.y.27| Int) (|.y.28| Int) (|.y.29| Int) (|G_11| (Array Int Int)) (|.y.30| (Array Int Int)) (|.y.31| (Array Int Int)) (|.y.32| (Array Int Int)) (|.y.33| (Array Int Int)) (|H_11| Int) (|.y.34| Int) (|.y.35| Int) (|.y.36| Int) (|.y.37| Int) (|.y.38| (Array Int Int)) (|.y.39| (Array Int Int)) (|.y.40| (Array Int Int)) (|.y.41| (Array Int Int)) (|.loc.42| Bool) (|.loc.43| Bool) (|.loc.44| Bool) (|L_12| Int) (|Y_0| Int) (|J_12| Int) (|J_13| Int) (|L_13| Int) (|.x.117| (Array Int Int)) (|.x.118| Int) (|.x.119| (Array Int Int)) (|.x.120| Int) (|M_11| Int) (|.loc.65| Bool) (|.y.51| (Array Int Int)) (|.y.56| Int) (|.loc.66| Bool) (|.y.57| Int) (|.y.61| (Array Int Int)) (|.y.58| Int) (|.y.62| (Array Int Int)) (|.loc.67| Bool) (|.y.59| Int) (|.y.63| (Array Int Int)) (|.x.116| Int) (|.y.64| (Array Int Int)) (|.y.60| Int) (|.y.49| Int) (|.y.48| Int) (|.y.47| Int) (|.y.45| Int) (|.y.50| Int) (|.y.46| Int) (|.y.55| (Array Int Int)) (|.y.54| (Array Int Int)) (|.y.53| (Array Int Int)) (|.y.52| (Array Int Int)) (|.xtv.1| Int) (|.xtv.2| Int) (|.xtv.3| Int) (|.xpv.1| Int) (|.xpv.2| Int)) (=> (and (state |A_12| |.y.24| |.y.25| |B_12| |C_11| |D_11| |E_11| |F_11| |.y.26| |.y.27| |.y.28| |.y.29| |G_11| |.y.30| |.y.31| |.y.32| |.y.33| |H_11| |.y.34| |.y.35| |.y.36| |.y.37| |.y.38| |.y.39| |.y.40| |.y.41| |.loc.42| |.loc.43| |.loc.44| |L_12| |Y_0| |J_12| |J_13| |L_13|) (let ((.def_44 (not .loc.42))) (let ((.def_45 (not .loc.43))) (let ((.def_47 (not .loc.44))) (let ((.def_51 (<= H_11 E_11))) (let ((.def_53 (= F_11 .x.118))) (let ((.def_56 (= G_11 .x.119))) (let ((.def_59 (= H_11 .x.120))) (let ((.def_63 (= M_11 0))) (let ((.def_66 (<= A_12 0))) (let ((.def_68 (not (<= J_12 0)))) (let ((.def_71 (not (<= L_12 0)))) (let ((.def_72 (<= C_11 0))) (let ((.def_93 (= (+ E_11 (* (- 1) M_11)) (- 1)))) (let ((.def_97 (not .def_72))) (let ((.def_103 (= C_11 .x.118))) (let ((.def_105 (= D_11 .x.119))) (let ((.def_107 (= F_11 .x.120))) (let ((.def_117 (and .def_63 (and .def_59 (and .def_53 .def_56))))) (let ((.def_118 (and .loc.42 .def_117))) (let ((.def_119 (not .loc.65))) (let ((.def_123 (<= .y.34 E_11))) (let ((.def_126 (= .y.34 .y.56))) (let ((.def_140 (= .y.51 (store G_11 L_12 (select D_11 J_12))))) (let ((.def_142 (<= F_11 0))) (let ((.def_143 (not .def_142))) (let ((.def_146 (= (+ C_11 (+ E_11 (* (- 1) J_12))) 0))) (let ((.def_150 (= (+ E_11 (+ F_11 (* (- 1) L_12))) 0))) (let ((.def_152 (or .def_71 .def_142))) (let ((.def_154 (or .def_68 .def_72))) (let ((.def_156 (= H_11 .y.56))) (let ((.def_166 (not .loc.66))) (let ((.def_169 (<= .y.35 E_11))) (let ((.def_172 (= .y.35 .y.57))) (let ((.def_175 (= .y.38 .y.61))) (let ((.def_196 (= .y.34 .y.57))) (let ((.def_209 (<= .y.36 E_11))) (let ((.def_212 (= .y.36 .y.58))) (let ((.def_215 (= .y.39 .y.62))) (let ((.def_239 (= .y.35 .y.58))) (let ((.def_257 (not .loc.67))) (let ((.def_260 (<= .y.37 E_11))) (let ((.def_264 (= .y.40 .y.63))) (let ((.def_291 (= .y.36 .y.59))) (let ((.def_295 (= A_12 .x.116))) (let ((.def_320 (<= .y.29 .y.25))) (let ((.def_420 (<= .y.24 0))) (or (or (and (= B_12 .x.117) (or (or (and (or (or (and (or (or (and .loc.44 (or (or (and (or (or (and (or (and .def_44 (and (and (and (and .def_51 .def_53) .def_56) .def_59) .def_63)) (and (and (and (and (or .def_66 .def_68) (and (or .def_71 .def_72) (and (= (+ C_11 (+ E_11 (* (- 1) L_12))) 0) (and (= (+ A_12 (+ E_11 (* (- 1) J_12))) 0) (and (and (not .def_66) (and (not (<= F_11 E_11)) (and (and .loc.42 (= (select B_12 J_12) (select D_11 L_12))) .def_93))) .def_97))))) .def_103) .def_105) .def_107)) (and .loc.43 .loc.65)) (and (and (and (= .y.38 .y.51) (and .def_45 (and .def_118 .def_119))) .def_123) .def_126)) (and (and (and (and (and (and (and (and .def_119 (and .def_107 (and .def_105 (and .def_103 (and .def_97 (and .def_93 (and .def_44 (and .loc.43 (not .def_51))))))))) .def_140) .def_143) .def_146) .def_150) .def_152) .def_154) .def_156)) .loc.66) (and (and (and (and (= .y.39 .y.51) (and (and .def_126 (and .def_45 (and .loc.65 (and .def_44 .def_117)))) .def_166)) .def_169) .def_172) .def_175)) (and (and (not .def_123) (and .def_175 (and .def_166 (and .def_156 (and .def_154 (and .def_152 (and .def_150 (and .def_146 (and .def_143 (and .def_140 (and .def_45 (and .def_107 (and .def_105 (and .def_103 (and .def_97 (and .def_93 (and .loc.42 .loc.65))))))))))))))))) .def_196))) (and (and (and (and (= .y.40 .y.51) (and .def_47 (and .def_175 (and .def_172 (and .def_166 (and .def_126 (and .def_119 (and .loc.43 .def_118)))))))) .def_209) .def_212) .def_215)) (and (and (not .def_169) (and .def_215 (and .def_196 (and .def_175 (and .def_166 (and .def_156 (and .def_154 (and .def_152 (and .def_150 (and .def_146 (and .def_143 (and .def_140 (and .def_45 (and .def_119 (and .def_107 (and .def_105 (and .def_103 (and .def_97 (and .def_93 (and .loc.44 .def_44)))))))))))))))))))) .def_239)) .loc.67) (and (and (= .y.37 .y.59) (and (and (= .y.41 .y.51) (and (and .def_215 (and .def_212 (and .def_47 (and .def_175 (and .def_172 (and .def_126 (and .loc.66 (and .loc.65 (and .def_44 (and .loc.43 .def_117)))))))))) .def_257)) .def_260)) .def_264)) (and (and (not .def_209) (and .def_264 (and .def_257 (and .def_239 (and .def_215 (and .def_47 (and .def_196 (and .def_175 (and .def_156 (and .def_154 (and .def_152 (and .def_150 (and .def_146 (and .def_143 (and .def_140 (and .def_107 (and .def_105 (and .def_103 (and .def_97 (and .def_93 (and .loc.66 (and .loc.65 (and .loc.42 .loc.43))))))))))))))))))))))) .def_291)) .def_295) (and (= .y.32 .y.64) (and (= .y.31 .y.63) (and (= .y.30 .y.62) (and (= G_11 .y.61) (and (= .y.29 .y.60) (and (= .y.28 .y.59) (and (= .y.27 .y.58) (and (= .y.26 .y.57) (and (= F_11 .y.56) (and (= E_11 .x.120) (and (= .y.24 .x.116) (and (and (= .y.33 .y.51) (and .def_257 (and .def_47 (and .def_45 (and .def_119 (and .def_105 (and .def_103 (and .loc.66 (and .loc.42 .def_63))))))))) .def_320))))))))))))) (and (= .y.41 .y.64) (and (= .y.37 .y.60) (and (not .def_260) (and .def_291 (and .def_264 (and .def_257 (and .def_239 (and .def_215 (and .def_47 (and .def_196 (and .def_175 (and .def_156 (and .def_154 (and .def_152 (and .def_150 (and .def_146 (and .def_143 (and .def_140 (and .def_119 (and .def_107 (and .def_105 (and .def_103 (and .def_97 (and .def_93 (and .loc.66 (and .def_44 (and .loc.43 .def_295))))))))))))))))))))))))))))) (and (not (<= .y.49 0)) (and (not (<= .y.48 0)) (and (not (<= .y.47 0)) (and (not (<= .x.120 0)) (and (not (<= M_11 0)) (and (not (<= .x.118 0)) (and (not (<= .y.45 0)) (and (not (<= .y.50 0)) (and (= .y.46 0) (and .def_257 (and .def_47 (and .def_166 (and .def_45 (and .loc.65 (and .def_44 .def_295)))))))))))))))) (and (= .y.33 .y.55) (and (= .y.32 .y.54) (and (= .y.31 .y.53) (and (= .y.30 .y.52) (and (= G_11 .y.51) (and (= .y.29 .y.50) (and (= .y.28 .y.49) (and (= .y.27 .y.48) (and (= .y.26 .y.47) (and (= E_11 M_11) (and (= .y.24 .y.45) (and (or .def_68 .def_420) (and (or .def_72 (not (<= Y_0 0))) (and (not .def_320) (and (= (+ .y.25 (+ C_11 (* (- 1) Y_0))) 0) (and (= (+ .y.24 (+ .y.25 (* (- 1) J_12))) 0) (and (not .def_420) (and (= (+ .y.25 (* (- 1) .y.46)) (- 1)) (and (= .x.117 (store B_12 J_12 L_12)) (and (= .x.119 (store D_11 Y_0 L_12)) (and .def_257 (and .def_47 (and .def_166 (and .def_45 (and .def_107 (and .def_103 (and .def_97 (and .loc.65 (and .loc.42 .def_295))))))))))))))))))))))))))))))))))))))))))))))))))))))))))))))))))))))))))))) (state |.x.116| |.y.45| |.y.46| |.x.117| |.x.118| |.x.119| |M_11| |.x.120| |.y.47| |.y.48| |.y.49| |.y.50| |.y.51| |.y.52| |.y.53| |.y.54| |.y.55| |.y.56| |.y.57| |.y.58| |.y.59| |.y.60| |.y.61| |.y.62| |.y.63| |.y.64| |.loc.65| |.loc.66| |.loc.67| |.xtv.1| |.xtv.2| |.xtv.3| |.xpv.1| |.xpv.2|))))
(assert (forall ((|A_12| Int) (|.y.24| Int) (|.y.25| Int) (|B_12| (Array Int Int)) (|C_11| Int) (|D_11| (Array Int Int)) (|E_11| Int) (|F_11| Int) (|.y.26| Int) (|.y.27| Int) (|.y.28| Int) (|.y.29| Int) (|G_11| (Array Int Int)) (|.y.30| (Array Int Int)) (|.y.31| (Array Int Int)) (|.y.32| (Array Int Int)) (|.y.33| (Array Int Int)) (|H_11| Int) (|.y.34| Int) (|.y.35| Int) (|.y.36| Int) (|.y.37| Int) (|.y.38| (Array Int Int)) (|.y.39| (Array Int Int)) (|.y.40| (Array Int Int)) (|.y.41| (Array Int Int)) (|.loc.42| Bool) (|.loc.43| Bool) (|.loc.44| Bool) (|L_12| Int) (|Y_0| Int) (|J_12| Int) (|J_13| Int) (|L_13| Int) (|.x.117| (Array Int Int)) (|.x.118| Int) (|.x.119| (Array Int Int)) (|.x.120| Int) (|M_11| Int) (|.loc.65| Bool) (|.y.51| (Array Int Int)) (|.y.56| Int) (|.loc.66| Bool) (|.y.57| Int) (|.y.61| (Array Int Int)) (|.y.58| Int) (|.y.62| (Array Int Int)) (|.loc.67| Bool) (|.y.59| Int) (|.y.63| (Array Int Int)) (|.x.116| Int) (|.y.64| (Array Int Int)) (|.y.60| Int) (|.y.49| Int) (|.y.48| Int) (|.y.47| Int) (|.y.45| Int) (|.y.50| Int) (|.y.46| Int) (|.y.55| (Array Int Int)) (|.y.54| (Array Int Int)) (|.y.53| (Array Int Int)) (|.y.52| (Array Int Int)) (|.xtv.1| Int) (|.xtv.2| Int) (|.xtv.3| Int) (|.xpv.1| Int) (|.xpv.2| Int)) (=> (state |A_12| |.y.24| |.y.25| |B_12| |C_11| |D_11| |E_11| |F_11| |.y.26| |.y.27| |.y.28| |.y.29| |G_11| |.y.30| |.y.31| |.y.32| |.y.33| |H_11| |.y.34| |.y.35| |.y.36| |.y.37| |.y.38| |.y.39| |.y.40| |.y.41| |.loc.42| |.loc.43| |.loc.44| |L_12| |Y_0| |J_12| |J_13| |L_13|) (let ((.def_66 (<= A_12 0))) (let ((.def_72 (<= C_11 0))) (not (and (and .loc.44 (and .loc.42 .loc.43)) (and (and (and (not (= (select B_12 J_13) (select D_11 L_13))) (and (and (and (not .def_72) (and (not .def_66) (not (<= F_11 E_11)))) (= (+ C_11 (+ E_11 (* (- 1) L_13))) 0)) (= (+ A_12 (+ E_11 (* (- 1) J_13))) 0))) (or .def_72 (not (<= L_13 0)))) (or .def_66 (not (<= J_13 0)))))))))))
(check-sat)
